NAME: Random_65_4
ELLAPSED_TIME_(ms): 0
TOUR_SIZE: 1768.6582
TOUR_SECTION
0
39
46
31
3
28
33
14
35
42
4
49
6
16
44
45
41
61
47
62
22
21
58
17
19
40
30
10
9
54
11
60
12
56
52
57
59
20
51
7
29
34
27
53
1
63
8
36
64
13
50
32
48
43
23
15
55
25
24
37
5
26
2
18
38
0
EOF
